78, 169
541, 3765
174, 4393
105, 1847
218, 2698
343, 3567
80, 2526
301, 1838
128, 4258
221, 4463
409, 3574
427, 1549
400, 3686
300, 2866
385, 2216
339, 4054
539, 4597
366, 3304
281, 3152
302, 1176
320, 3631
225, 4961
211, 1194
420, 4163
201, 3306
414, 1191
332, 2236
497, 3939
527, 4989
454, 1420
221, 1404
546, 2040
364, 1387
414, 4037
468, 4029
77, 4102
212, 1836
538, 4538
82, 3070
403, 4047
50, 4164
321, 1948
463, 1744
122, 2103
150, 4092
471, 1087
530, 2148
527, 2416
377, 2043
194, 2827
490, 1129
51, 4565
120, 1592
193, 3503
512, 2690
84, 3978
441, 4756
93, 3188
306, 2082
530, 2851
157, 4037
332, 2839
291, 1157
80, 1085
285, 1726
294, 2623
322, 3904
257, 1242
410, 3324
491, 4101
91, 3252
245, 1622
149, 4022
345, 1264
209, 2912
385, 2164
301, 4417
370, 4125
328, 4036